NAME : random72.665.tour
COMMENT : Length = 665
COMMENT : Found by LKH [Keld Helsgaun] Sat Nov 23 17:18:18 2024
TYPE : TOUR
DIMENSION : 72
TOUR_SECTION
1
64
55
6
33
17
68
23
36
65
46
40
28
66
62
48
56
47
54
21
12
13
25
16
71
32
59
19
44
4
49
34
50
7
11
57
18
42
27
14
22
30
45
26
67
37
24
41
2
63
29
61
72
53
35
10
58
9
51
52
15
20
8
3
60
38
69
43
31
39
5
70
-1
EOF
